p cnf 175 741
1 2 3 4 5 0
6 7 8 9 10 0
11 12 13 14 15 0
16 17 18 19 20 0
21 22 23 24 25 0
26 27 28 29 30 0
31 32 33 34 35 0
36 37 38 39 40 0
41 42 43 44 45 0
46 47 48 49 50 0
51 52 53 54 55 0
56 57 58 59 60 0
61 62 63 64 65 0
66 67 68 69 70 0
71 72 73 74 75 0
76 77 78 79 80 0
81 82 83 84 85 0
86 87 88 89 90 0
91 92 93 94 95 0
96 97 98 99 100 0
101 102 103 104 105 0
106 107 108 109 110 0
111 112 113 114 115 0
116 117 118 119 120 0
121 122 123 124 125 0
126 127 128 129 130 0
131 132 133 134 135 0
136 137 138 139 140 0
141 142 143 144 145 0
146 147 148 149 150 0
151 152 153 154 155 0
156 157 158 159 160 0
161 162 163 164 165 0
166 167 168 169 170 0
171 172 173 174 175 0
-1 -2 0
-1 -3 0
-1 -4 0
-1 -5 0
-2 -3 0
-2 -4 0
-2 -5 0
-3 -4 0
-3 -5 0
-4 -5 0
-6 -7 0
-6 -8 0
-6 -9 0
-6 -10 0
-7 -8 0
-7 -9 0
-7 -10 0
-8 -9 0
-8 -10 0
-9 -10 0
-11 -12 0
-11 -13 0
-11 -14 0
-11 -15 0
-12 -13 0
-12 -14 0
-12 -15 0
-13 -14 0
-13 -15 0
-14 -15 0
-16 -17 0
-16 -18 0
-16 -19 0
-16 -20 0
-17 -18 0
-17 -19 0
-17 -20 0
-18 -19 0
-18 -20 0
-19 -20 0
-21 -22 0
-21 -23 0
-21 -24 0
-21 -25 0
-22 -23 0
-22 -24 0
-22 -25 0
-23 -24 0
-23 -25 0
-24 -25 0
-26 -27 0
-26 -28 0
-26 -29 0
-26 -30 0
-27 -28 0
-27 -29 0
-27 -30 0
-28 -29 0
-28 -30 0
-29 -30 0
-31 -32 0
-31 -33 0
-31 -34 0
-31 -35 0
-32 -33 0
-32 -34 0
-32 -35 0
-33 -34 0
-33 -35 0
-34 -35 0
-36 -37 0
-36 -38 0
-36 -39 0
-36 -40 0
-37 -38 0
-37 -39 0
-37 -40 0
-38 -39 0
-38 -40 0
-39 -40 0
-41 -42 0
-41 -43 0
-41 -44 0
-41 -45 0
-42 -43 0
-42 -44 0
-42 -45 0
-43 -44 0
-43 -45 0
-44 -45 0
-46 -47 0
-46 -48 0
-46 -49 0
-46 -50 0
-47 -48 0
-47 -49 0
-47 -50 0
-48 -49 0
-48 -50 0
-49 -50 0
-51 -52 0
-51 -53 0
-51 -54 0
-51 -55 0
-52 -53 0
-52 -54 0
-52 -55 0
-53 -54 0
-53 -55 0
-54 -55 0
-56 -57 0
-56 -58 0
-56 -59 0
-56 -60 0
-57 -58 0
-57 -59 0
-57 -60 0
-58 -59 0
-58 -60 0
-59 -60 0
-61 -62 0
-61 -63 0
-61 -64 0
-61 -65 0
-62 -63 0
-62 -64 0
-62 -65 0
-63 -64 0
-63 -65 0
-64 -65 0
-66 -67 0
-66 -68 0
-66 -69 0
-66 -70 0
-67 -68 0
-67 -69 0
-67 -70 0
-68 -69 0
-68 -70 0
-69 -70 0
-71 -72 0
-71 -73 0
-71 -74 0
-71 -75 0
-72 -73 0
-72 -74 0
-72 -75 0
-73 -74 0
-73 -75 0
-74 -75 0
-76 -77 0
-76 -78 0
-76 -79 0
-76 -80 0
-77 -78 0
-77 -79 0
-77 -80 0
-78 -79 0
-78 -80 0
-79 -80 0
-81 -82 0
-81 -83 0
-81 -84 0
-81 -85 0
-82 -83 0
-82 -84 0
-82 -85 0
-83 -84 0
-83 -85 0
-84 -85 0
-86 -87 0
-86 -88 0
-86 -89 0
-86 -90 0
-87 -88 0
-87 -89 0
-87 -90 0
-88 -89 0
-88 -90 0
-89 -90 0
-91 -92 0
-91 -93 0
-91 -94 0
-91 -95 0
-92 -93 0
-92 -94 0
-92 -95 0
-93 -94 0
-93 -95 0
-94 -95 0
-96 -97 0
-96 -98 0
-96 -99 0
-96 -100 0
-97 -98 0
-97 -99 0
-97 -100 0
-98 -99 0
-98 -100 0
-99 -100 0
-101 -102 0
-101 -103 0
-101 -104 0
-101 -105 0
-102 -103 0
-102 -104 0
-102 -105 0
-103 -104 0
-103 -105 0
-104 -105 0
-106 -107 0
-106 -108 0
-106 -109 0
-106 -110 0
-107 -108 0
-107 -109 0
-107 -110 0
-108 -109 0
-108 -110 0
-109 -110 0
-111 -112 0
-111 -113 0
-111 -114 0
-111 -115 0
-112 -113 0
-112 -114 0
-112 -115 0
-113 -114 0
-113 -115 0
-114 -115 0
-116 -117 0
-116 -118 0
-116 -119 0
-116 -120 0
-117 -118 0
-117 -119 0
-117 -120 0
-118 -119 0
-118 -120 0
-119 -120 0
-121 -122 0
-121 -123 0
-121 -124 0
-121 -125 0
-122 -123 0
-122 -124 0
-122 -125 0
-123 -124 0
-123 -125 0
-124 -125 0
-126 -127 0
-126 -128 0
-126 -129 0
-126 -130 0
-127 -128 0
-127 -129 0
-127 -130 0
-128 -129 0
-128 -130 0
-129 -130 0
-131 -132 0
-131 -133 0
-131 -134 0
-131 -135 0
-132 -133 0
-132 -134 0
-132 -135 0
-133 -134 0
-133 -135 0
-134 -135 0
-136 -137 0
-136 -138 0
-136 -139 0
-136 -140 0
-137 -138 0
-137 -139 0
-137 -140 0
-138 -139 0
-138 -140 0
-139 -140 0
-141 -142 0
-141 -143 0
-141 -144 0
-141 -145 0
-142 -143 0
-142 -144 0
-142 -145 0
-143 -144 0
-143 -145 0
-144 -145 0
-146 -147 0
-146 -148 0
-146 -149 0
-146 -150 0
-147 -148 0
-147 -149 0
-147 -150 0
-148 -149 0
-148 -150 0
-149 -150 0
-151 -152 0
-151 -153 0
-151 -154 0
-151 -155 0
-152 -153 0
-152 -154 0
-152 -155 0
-153 -154 0
-153 -155 0
-154 -155 0
-156 -157 0
-156 -158 0
-156 -159 0
-156 -160 0
-157 -158 0
-157 -159 0
-157 -160 0
-158 -159 0
-158 -160 0
-159 -160 0
-161 -162 0
-161 -163 0
-161 -164 0
-161 -165 0
-162 -163 0
-162 -164 0
-162 -165 0
-163 -164 0
-163 -165 0
-164 -165 0
-166 -167 0
-166 -168 0
-166 -169 0
-166 -170 0
-167 -168 0
-167 -169 0
-167 -170 0
-168 -169 0
-168 -170 0
-169 -170 0
-171 -172 0
-171 -173 0
-171 -174 0
-171 -175 0
-172 -173 0
-172 -174 0
-172 -175 0
-173 -174 0
-173 -175 0
-174 -175 0
-1 -9 0
-1 -10 0
-1 -17 0
-2 -18 0
-1 -21 0
-4 -24 0
-1 -30 0
-4 -28 0
-4 -48 0
-3 -49 0
-3 -68 0
-4 -69 0
-5 -71 0
-2 -75 0
-1 -88 0
-2 -90 0
-2 -110 0
-1 -110 0
-5 -121 0
-3 -122 0
-3 -132 0
-1 -134 0
-2 -156 0
-5 -159 0
-1 -162 0
-2 -163 0
-6 -25 0
-6 -24 0
-9 -51 0
-10 -51 0
-10 -68 0
-9 -69 0
-8 -71 0
-6 -71 0
-7 -95 0
-6 -92 0
-8 -112 0
-10 -113 0
-10 -162 0
-6 -164 0
-9 -171 0
-7 -174 0
-13 -17 0
-11 -16 0
-14 -30 0
-15 -29 0
-13 -40 0
-14 -37 0
-15 -61 0
-13 -62 0
-11 -67 0
-12 -66 0
-13 -84 0
-13 -85 0
-11 -90 0
-13 -88 0
-14 -108 0
-14 -106 0
-12 -112 0
-13 -113 0
-14 -120 0
-14 -119 0
-14 -134 0
-12 -131 0
-11 -165 0
-12 -164 0
-19 -40 0
-17 -37 0
-18 -43 0
-19 -43 0
-20 -55 0
-18 -54 0
-16 -67 0
-20 -69 0
-17 -73 0
-19 -75 0
-16 -79 0
-18 -76 0
-19 -117 0
-17 -116 0
-17 -124 0
-16 -123 0
-20 -146 0
-18 -148 0
-20 -153 0
-20 -155 0
-25 -31 0
-22 -32 0
-23 -37 0
-25 -37 0
-21 -56 0
-22 -58 0
-23 -87 0
-21 -89 0
-22 -111 0
-25 -114 0
-24 -122 0
-25 -121 0
-24 -126 0
-25 -128 0
-30 -31 0
-29 -33 0
-27 -36 0
-30 -37 0
-27 -70 0
-27 -67 0
-28 -73 0
-29 -73 0
-30 -114 0
-28 -112 0
-28 -147 0
-27 -149 0
-28 -155 0
-27 -154 0
-27 -158 0
-28 -158 0
-29 -161 0
-28 -163 0
-33 -52 0
-31 -52 0
-35 -58 0
-32 -58 0
-34 -63 0
-31 -64 0
-32 -80 0
-33 -79 0
-33 -81 0
-32 -85 0
-35 -95 0
-33 -94 0
-33 -105 0
-32 -105 0
-32 -118 0
-34 -119 0
-31 -132 0
-35 -131 0
-38 -90 0
-37 -90 0
-40 -100 0
-37 -98 0
-38 -116 0
-39 -118 0
-37 -150 0
-39 -147 0
-42 -71 0
-44 -71 0
-41 -81 0
-42 -85 0
-43 -89 0
-44 -88 0
-43 -106 0
-42 -109 0
-45 -112 0
-43 -111 0
-42 -143 0
-43 -143 0
-47 -59 0
-49 -59 0
-46 -65 0
-48 -65 0
-49 -70 0
-50 -67 0
-47 -94 0
-49 -94 0
-46 -107 0
-46 -109 0
-47 -112 0
-46 -114 0
-47 -143 0
-50 -144 0
-49 -153 0
-49 -154 0
-49 -171 0
-47 -175 0
-51 -61 0
-54 -63 0
-55 -70 0
-54 -66 0
-51 -79 0
-51 -76 0
-52 -131 0
-52 -135 0
-53 -163 0
-54 -163 0
-52 -168 0
-54 -168 0
-56 -69 0
-59 -66 0
-59 -82 0
-56 -81 0
-59 -87 0
-60 -88 0
-59 -105 0
-56 -103 0
-58 -160 0
-60 -158 0
-56 -170 0
-58 -170 0
-64 -78 0
-62 -76 0
-63 -115 0
-64 -115 0
-65 -150 0
-65 -148 0
-70 -74 0
-67 -72 0
-70 -86 0
-67 -87 0
-67 -92 0
-66 -95 0
-67 -96 0
-66 -99 0
-67 -115 0
-68 -112 0
-67 -122 0
-67 -123 0
-69 -126 0
-70 -127 0
-66 -144 0
-66 -141 0
-67 -154 0
-67 -155 0
-69 -175 0
-70 -172 0
-74 -83 0
-72 -83 0
-71 -97 0
-72 -98 0
-74 -120 0
-73 -120 0
-73 -130 0
-72 -130 0
-75 -143 0
-73 -142 0
-75 -150 0
-75 -146 0
-80 -81 0
-80 -82 0
-78 -95 0
-76 -91 0
-79 -115 0
-78 -113 0
-80 -123 0
-79 -123 0
-78 -128 0
-76 -126 0
-80 -134 0
-77 -135 0
-77 -144 0
-80 -142 0
-80 -160 0
-79 -160 0
-84 -100 0
-83 -98 0
-81 -130 0
-81 -128 0
-81 -140 0
-83 -139 0
-84 -161 0
-81 -163 0
-84 -170 0
-84 -167 0
-90 -105 0
-87 -104 0
-90 -118 0
-86 -118 0
-90 -126 0
-90 -128 0
-92 -104 0
-91 -102 0
-92 -109 0
-94 -108 0
-94 -127 0
-91 -129 0
-93 -143 0
-95 -145 0
-94 -154 0
-92 -152 0
-94 -167 0
-95 -168 0
-96 -101 0
-96 -102 0
-97 -126 0
-97 -127 0
-98 -149 0
-98 -146 0
-98 -151 0
-100 -151 0
-96 -168 0
-100 -168 0
-98 -173 0
-96 -174 0
-102 -116 0
-102 -117 0
-103 -125 0
-104 -125 0
-101 -128 0
-101 -130 0
-103 -146 0
-101 -148 0
-109 -113 0
-110 -113 0
-108 -120 0
-106 -118 0
-110 -123 0
-107 -125 0
-108 -143 0
-108 -142 0
-114 -170 0
-114 -167 0
-112 -175 0
-113 -173 0
-119 -122 0
-119 -123 0
-118 -142 0
-118 -141 0
-118 -152 0
-119 -154 0
-125 -132 0
-123 -134 0
-125 -151 0
-123 -154 0
-122 -160 0
-122 -159 0
-124 -161 0
-123 -165 0
-130 -138 0
-126 -136 0
-126 -160 0
-127 -156 0
-133 -145 0
-131 -144 0
-131 -155 0
-131 -151 0
-134 -175 0
-132 -175 0
-140 -167 0
-140 -169 0
-137 -172 0
-139 -171 0
-141 -158 0
-142 -158 0
-143 -168 0
-142 -170 0
-147 -153 0
-147 -151 0
-150 -163 0
-148 -161 0
-147 -167 0
-147 -168 0
-148 -175 0
-150 -173 0
-151 -175 0
-153 -171 0
-163 -170 0
-164 -169 0
